c defined variables: 13 25 29 33 37 41 45 49 53 57 61 65 69 73 77 81 85 89 93 97 101 105 109 113 126 136 140 144 148 152 156 160 164 168 172 176 180 184 188 192 196 200 204 208 212 216 220 224 228 229 231 232 233 235 236 238 239 240 241 243 244 246 247 248 250 251 253 254 255 256 257 259 260 262 263 264 266 267 269 270 271 272 274 275 277 278 279 281 282 284 285 286 287 288 289 291 292 294 295 296 298 299 301 302 303 304 306 307 309 310 311 313 314 316 317 318 319 320 322 323 326 328 329 331 332 333 334 336 337 339 340 341 343 344 346 347 348 349 350 351 352 353 354 355 356 357 358 359 360 361 362 363 364 365 366 367 368 369 370 371 372 373 374 375 376 377 378 379 380 381 382 383 384 385 386 387 388 389 390 391 392 393 394 395 396 397 398 399 400 401 402 403 404 405 406 407 408 409 410 411 412 413 414 415 416 417 418 419 420 421 422 423 424 426 427 428 429 430 431 432 433 434 435 436 437 438 439 440 441 442 443 444 445 446 447 448 450 
p cnf 1626 2095
a 68 72 56 64 48 60 40 52 32 44 293 297 261 265 268 273 276 280 283 290 335 330 321 315 327 425 305 300 312 308 20 36 4 8 24 16 1 28 12 345 5 338 342 21 2 9 17 191 183 167 171 179 175 151 155 159 163 252 258 230 234 227 245 249 237 242 199 203 187 195 215 219 211 207 223 104 96 100 92 88 84 76 80 112 108 122 135 129 132 116 139 125 119 147 143 0
e 3 6 7 10 11 14 15 18 19 22 23 26 27 30 31 34 35 38 39 42 43 46 47 50 51 54 55 58 59 62 63 66 67 70 71 74 75 78 79 82 83 86 87 90 91 94 95 98 99 102 103 106 107 110 111 114 115 117 118 120 121 123 124 127 128 130 131 133 134 137 138 141 142 145 146 149 150 153 154 157 158 161 162 165 166 169 170 173 174 177 178 181 182 185 186 189 190 193 194 197 198 201 202 205 206 209 210 213 214 217 218 221 222 225 226 325 449 13 25 29 33 37 41 45 49 53 57 61 65 69 73 77 81 85 89 93 97 101 105 109 113 126 136 140 144 148 152 156 160 164 168 172 176 180 184 188 192 196 200 204 208 212 216 220 224 228 229 231 232 233 235 236 238 239 240 241 243 244 246 247 248 250 251 253 254 255 256 257 259 260 262 263 264 266 267 269 270 271 272 274 275 277 278 279 281 282 284 285 286 287 288 289 291 292 294 295 296 298 299 301 302 303 304 306 307 309 310 311 313 314 316 317 318 319 320 322 323 326 328 329 331 332 333 334 336 337 339 340 341 343 344 346 347 348 349 350 351 352 353 354 355 356 357 358 359 360 361 362 363 364 365 366 367 368 369 370 371 372 373 374 375 376 377 378 379 380 381 382 383 384 385 386 387 388 389 390 391 392 393 394 395 396 397 398 399 400 401 402 403 404 405 406 407 408 409 410 411 412 413 414 415 416 417 418 419 420 421 422 423 424 426 427 428 429 430 431 432 433 434 435 436 437 438 439 440 441 442 443 444 445 446 447 448 450 1403 1404 1405 1406 1407 1408 1409 1410 1411 1412 1413 1414 1415 1416 1417 1418 1419 1420 1421 1422 1423 1424 1425 1426 1427 1428 1429 1430 1431 1432 1433 1434 1435 1436 1437 1438 1439 1440 1441 1442 1443 1444 1445 1446 1447 1448 1449 1450 1451 1452 1453 1454 1455 1456 1457 1458 1459 1460 1461 1462 1463 1464 1465 1466 1467 1468 1469 1470 1471 1472 1473 1474 1475 1476 1477 1478 1479 1480 1481 1482 1483 1484 1485 1486 1487 1488 1489 1490 1491 1492 1493 1494 1495 1496 1497 1498 1499 1500 1501 1502 1503 1504 1505 1506 1507 1508 1509 1510 1511 1512 1513 1514 1515 1516 1517 1518 1519 1520 1521 1522 1523 1524 1525 1526 1527 1528 1529 1530 1531 1532 1533 1534 1535 1536 1537 1538 1539 1540 1541 1542 1543 1544 1545 1546 1547 1548 1549 1550 1551 1552 1553 1554 1555 1556 1557 1558 1559 1560 1561 1562 1563 1564 1565 1566 1567 1568 1569 1570 1571 1572 1573 1574 1575 1576 1577 1578 1579 1580 1581 1582 1583 1584 1585 1586 1587 1588 1589 1590 1591 1592 1593 1594 1595 1596 1597 1598 1599 1600 1601 1602 1603 1604 1605 1606 1607 1608 1609 1610 1611 1612 1613 1614 1615 1616 1617 1618 1619 1620 1621 1622 1623 1624 1625 1626 0
d 324 425 2 0
1404 -13 0
-1404 13 0
1405 -25 0
-1405 25 0
1406 -29 0
-1406 29 0
1407 -33 0
-1407 33 0
1408 -37 0
-1408 37 0
1409 -41 0
-1409 41 0
1410 -45 0
-1410 45 0
1411 -49 0
-1411 49 0
1412 -53 0
-1412 53 0
1413 -57 0
-1413 57 0
1414 -61 0
-1414 61 0
1415 -65 0
-1415 65 0
1416 -69 0
-1416 69 0
1417 -73 0
-1417 73 0
1418 -77 0
-1418 77 0
1419 -81 0
-1419 81 0
1420 -85 0
-1420 85 0
1421 -89 0
-1421 89 0
1422 -93 0
-1422 93 0
1423 -97 0
-1423 97 0
1424 -101 0
-1424 101 0
1425 -105 0
-1425 105 0
1426 -109 0
-1426 109 0
1427 -113 0
-1427 113 0
1428 -126 0
-1428 126 0
1429 -136 0
-1429 136 0
1430 -140 0
-1430 140 0
1431 -144 0
-1431 144 0
1432 -148 0
-1432 148 0
1433 -152 0
-1433 152 0
1434 -156 0
-1434 156 0
1411 -160 0
-1411 160 0
1435 -164 0
-1435 164 0
1436 -168 0
-1436 168 0
1437 -172 0
-1437 172 0
1438 -176 0
-1438 176 0
1439 -180 0
-1439 180 0
1440 -184 0
-1440 184 0
1441 -188 0
-1441 188 0
1442 -192 0
-1442 192 0
1443 -196 0
-1443 196 0
1444 -200 0
-1444 200 0
1445 -204 0
-1445 204 0
1423 -208 0
-1423 208 0
1446 -212 0
-1446 212 0
1447 -216 0
-1447 216 0
1448 -220 0
-1448 220 0
1449 -224 0
-1449 224 0
1450 -228 0
-1450 228 0
1451 -229 0
-1451 229 0
1452 -231 0
-1452 231 0
1453 -232 0
-1453 232 0
-1454 -233 0
1454 233 0
1455 -235 0
-1455 235 0
1456 -236 0
-1456 236 0
1457 -238 0
-1457 238 0
1458 -239 0
-1458 239 0
-1459 -240 0
1459 240 0
-1460 -241 0
1460 241 0
1461 -243 0
-1461 243 0
1462 -244 0
-1462 244 0
1465 -246 0
-1465 246 0
1466 -247 0
-1466 247 0
-1467 -248 0
1467 248 0
1468 -250 0
-1468 250 0
1469 -251 0
-1469 251 0
1470 -253 0
-1470 253 0
1471 -254 0
-1471 254 0
-1472 -255 0
1472 255 0
-1473 -256 0
1473 256 0
-1474 -257 0
1474 257 0
1475 -259 0
-1475 259 0
1476 -260 0
-1476 260 0
1477 -262 0
-1477 262 0
1478 -263 0
-1478 263 0
-1479 -264 0
1479 264 0
1480 -266 0
-1480 266 0
1481 -267 0
-1481 267 0
1482 -269 0
-1482 269 0
1483 -270 0
-1483 270 0
-1484 -271 0
1484 271 0
-1485 -272 0
1485 272 0
1486 -274 0
-1486 274 0
1487 -275 0
-1487 275 0
1488 -277 0
-1488 277 0
1489 -278 0
-1489 278 0
-1490 -279 0
1490 279 0
1491 -281 0
-1491 281 0
1492 -282 0
-1492 282 0
1493 -284 0
-1493 284 0
1494 -285 0
-1494 285 0
-1495 -286 0
1495 286 0
-1496 -287 0
1496 287 0
-1497 -288 0
1497 288 0
-1498 -289 0
1498 289 0
1499 -291 0
-1499 291 0
1500 -292 0
-1500 292 0
1501 -294 0
-1501 294 0
1502 -295 0
-1502 295 0
-1503 -296 0
1503 296 0
1504 -298 0
-1504 298 0
1505 -299 0
-1505 299 0
1506 -301 0
-1506 301 0
1507 -302 0
-1507 302 0
-1508 -303 0
1508 303 0
-1509 -304 0
1509 304 0
1510 -306 0
-1510 306 0
1511 -307 0
-1511 307 0
1512 -309 0
-1512 309 0
1513 -310 0
-1513 310 0
-1514 -311 0
1514 311 0
1515 -313 0
-1515 313 0
1516 -314 0
-1516 314 0
1517 -316 0
-1517 316 0
1518 -317 0
-1518 317 0
-1519 -318 0
1519 318 0
-1520 -319 0
1520 319 0
-1521 -320 0
1521 320 0
1522 -322 0
-1522 322 0
1523 -323 0
-1523 323 0
-1524 -326 0
1524 326 0
1525 -328 0
-1525 328 0
1526 -329 0
-1526 329 0
1527 -331 0
-1527 331 0
1528 -332 0
-1528 332 0
-1529 -333 0
1529 333 0
-1530 -334 0
1530 334 0
1531 -336 0
-1531 336 0
1532 -337 0
-1532 337 0
1533 -339 0
-1533 339 0
1534 -340 0
-1534 340 0
-1535 -341 0
1535 341 0
1536 -343 0
-1536 343 0
1537 -344 0
-1537 344 0
1538 -346 0
-1538 346 0
1539 -347 0
-1539 347 0
-1540 -348 0
1540 348 0
-1541 -349 0
1541 349 0
-1542 -350 0
1542 350 0
-1543 -351 0
1543 351 0
-1544 -352 0
1544 352 0
1545 -353 0
-1545 353 0
1546 -354 0
-1546 354 0
1547 -355 0
-1547 355 0
1548 -356 0
-1548 356 0
-1549 -357 0
1549 357 0
1550 -358 0
-1550 358 0
1551 -359 0
-1551 359 0
1552 -360 0
-1552 360 0
1553 -361 0
-1553 361 0
-1554 -362 0
1554 362 0
-1555 -363 0
1555 363 0
1556 -364 0
-1556 364 0
1557 -365 0
-1557 365 0
1558 -366 0
-1558 366 0
1559 -367 0
-1559 367 0
-1560 -368 0
1560 368 0
1561 -369 0
-1561 369 0
1562 -370 0
-1562 370 0
1563 -371 0
-1563 371 0
1564 -372 0
-1564 372 0
-1565 -373 0
1565 373 0
-1566 -374 0
1566 374 0
-1567 -375 0
1567 375 0
1568 -376 0
-1568 376 0
1569 -377 0
-1569 377 0
1570 -378 0
-1570 378 0
1571 -379 0
-1571 379 0
-1572 -380 0
1572 380 0
1573 -381 0
-1573 381 0
1574 -382 0
-1574 382 0
1575 -383 0
-1575 383 0
1576 -384 0
-1576 384 0
-1577 -385 0
1577 385 0
-1578 -386 0
1578 386 0
1579 -387 0
-1579 387 0
1580 -388 0
-1580 388 0
1581 -389 0
-1581 389 0
1582 -390 0
-1582 390 0
-1583 -391 0
1583 391 0
1584 -392 0
-1584 392 0
1585 -393 0
-1585 393 0
1586 -394 0
-1586 394 0
1587 -395 0
-1587 395 0
-1588 -396 0
1588 396 0
-1589 -397 0
1589 397 0
-1591 -398 0
1591 398 0
-1593 -399 0
1593 399 0
1499 -400 0
-1499 400 0
1594 -401 0
-1594 401 0
1501 -402 0
-1501 402 0
1595 -403 0
-1595 403 0
-1596 -404 0
1596 404 0
1504 -405 0
-1504 405 0
1597 -406 0
-1597 406 0
1506 -407 0
-1506 407 0
1598 -408 0
-1598 408 0
-1599 -409 0
1599 409 0
-1600 -410 0
1600 410 0
1510 -411 0
-1510 411 0
1601 -412 0
-1601 412 0
1512 -413 0
-1512 413 0
1602 -414 0
-1602 414 0
-1603 -415 0
1603 415 0
1515 -416 0
-1515 416 0
1604 -417 0
-1604 417 0
1517 -418 0
-1517 418 0
1605 -419 0
-1605 419 0
-1606 -420 0
1606 420 0
-1607 -421 0
1607 421 0
-1608 -422 0
1608 422 0
1522 -423 0
-1522 423 0
1609 -424 0
-1609 424 0
1610 -426 0
-1610 426 0
1611 -427 0
-1611 427 0
-1612 -428 0
1612 428 0
1525 -429 0
-1525 429 0
1613 -430 0
-1613 430 0
1527 -431 0
-1527 431 0
1614 -432 0
-1614 432 0
-1615 -433 0
1615 433 0
-1616 -434 0
1616 434 0
1531 -435 0
-1531 435 0
1617 -436 0
-1617 436 0
1533 -437 0
-1533 437 0
1618 -438 0
-1618 438 0
-1619 -439 0
1619 439 0
1536 -440 0
-1536 440 0
1620 -441 0
-1620 441 0
1538 -442 0
-1538 442 0
1621 -443 0
-1621 443 0
-1622 -444 0
1622 444 0
-1623 -445 0
1623 445 0
-1624 -446 0
1624 446 0
-1625 -447 0
1625 447 0
-1626 -448 0
1626 448 0
1403 -450 0
-1403 450 0
450 0
-450 226 449 0
-226 222 -225 0
-222 218 -221 0
-218 214 -217 0
-214 210 -213 0
-210 206 -209 0
-206 202 -205 0
-202 198 -201 0
-198 194 -197 0
-194 190 -193 0
-190 186 -189 0
-186 182 -185 0
-182 178 -181 0
-178 174 -177 0
-174 170 -173 0
-170 166 -169 0
-166 162 -165 0
-162 158 -161 0
-158 154 -157 0
-154 150 -153 0
-150 146 -149 0
-146 142 -145 0
-142 138 -141 0
-138 134 -137 0
-134 131 -133 0
-131 128 -130 0
-128 124 -127 0
-124 121 -123 0
-121 118 -120 0
-118 115 -117 0
-115 111 -114 0
-111 107 -110 0
-107 103 -106 0
-103 99 -102 0
-99 95 -98 0
-95 91 -94 0
-91 87 -90 0
-87 83 -86 0
-83 79 -82 0
-79 75 -78 0
-75 71 -74 0
-71 67 -70 0
-67 63 -66 0
-63 59 -62 0
-59 55 -58 0
-55 51 -54 0
-51 47 -50 0
-47 43 -46 0
-43 39 -42 0
-39 35 -38 0
-35 31 -34 0
-31 27 -30 0
-27 23 -26 0
-23 19 -22 0
-19 15 -18 0
-15 11 -14 0
-11 7 -10 0
-7 -3 -6 0
1 -2 3 0
-1 2 3 0
4 -5 6 0
-4 5 6 0
8 -9 10 0
-8 9 10 0
12 13 14 0
-12 -13 14 0
-4 -8 13 0
-13 4 0
-13 8 0
16 -17 18 0
-16 17 18 0
20 -21 22 0
-20 21 22 0
24 25 26 0
-24 -25 26 0
-16 -20 25 0
-25 16 0
-25 20 0
28 29 30 0
-28 -29 30 0
-12 -24 29 0
-29 12 0
-29 24 0
32 33 34 0
-32 -33 34 0
-5 -8 33 0
-33 5 0
-33 8 0
36 37 38 0
-36 -37 38 0
-32 -24 37 0
-37 32 0
-37 24 0
40 41 42 0
-40 -41 42 0
-4 -9 41 0
-41 4 0
-41 9 0
44 45 46 0
-44 -45 46 0
-40 -24 45 0
-45 40 0
-45 24 0
48 49 50 0
-48 -49 50 0
-5 -9 49 0
-49 5 0
-49 9 0
52 53 54 0
-52 -53 54 0
-48 -24 53 0
-53 48 0
-53 24 0
56 57 58 0
-56 -57 58 0
-17 -20 57 0
-57 17 0
-57 20 0
60 61 62 0
-60 -61 62 0
-12 -56 61 0
-61 12 0
-61 56 0
64 65 66 0
-64 -65 66 0
-32 -56 65 0
-65 32 0
-65 56 0
68 69 70 0
-68 -69 70 0
-40 -56 69 0
-69 40 0
-69 56 0
72 73 74 0
-72 -73 74 0
-48 -56 73 0
-73 48 0
-73 56 0
76 77 78 0
-76 -77 78 0
-16 -21 77 0
-77 16 0
-77 21 0
80 81 82 0
-80 -81 82 0
-12 -76 81 0
-81 12 0
-81 76 0
84 85 86 0
-84 -85 86 0
-32 -76 85 0
-85 32 0
-85 76 0
88 89 90 0
-88 -89 90 0
-40 -76 89 0
-89 40 0
-89 76 0
92 93 94 0
-92 -93 94 0
-48 -76 93 0
-93 48 0
-93 76 0
96 97 98 0
-96 -97 98 0
-17 -21 97 0
-97 17 0
-97 21 0
100 101 102 0
-100 -101 102 0
-12 -96 101 0
-101 12 0
-101 96 0
104 105 106 0
-104 -105 106 0
-32 -96 105 0
-105 32 0
-105 96 0
108 109 110 0
-108 -109 110 0
-40 -96 109 0
-109 40 0
-109 96 0
112 113 114 0
-112 -113 114 0
-48 -96 113 0
-113 48 0
-113 96 0
116 -2 117 0
-116 2 117 0
119 -5 120 0
-119 5 120 0
122 -9 123 0
-122 9 123 0
125 126 127 0
-125 -126 127 0
-119 -122 126 0
-126 119 0
-126 122 0
129 -17 130 0
-129 17 130 0
132 -21 133 0
-132 21 133 0
135 136 137 0
-135 -136 137 0
-129 -132 136 0
-136 129 0
-136 132 0
139 140 141 0
-139 -140 141 0
-125 -135 140 0
-140 125 0
-140 135 0
143 144 145 0
-143 -144 145 0
-5 -122 144 0
-144 5 0
-144 122 0
147 148 149 0
-147 -148 149 0
-143 -135 148 0
-148 143 0
-148 135 0
151 152 153 0
-151 -152 153 0
-119 -9 152 0
-152 119 0
-152 9 0
155 156 157 0
-155 -156 157 0
-151 -135 156 0
-156 151 0
-156 135 0
159 160 161 0
-159 -160 161 0
-5 -9 160 0
-160 5 0
-160 9 0
163 164 165 0
-163 -164 165 0
-159 -135 164 0
-164 159 0
-164 135 0
167 168 169 0
-167 -168 169 0
-17 -132 168 0
-168 17 0
-168 132 0
171 172 173 0
-171 -172 173 0
-125 -167 172 0
-172 125 0
-172 167 0
175 176 177 0
-175 -176 177 0
-143 -167 176 0
-176 143 0
-176 167 0
179 180 181 0
-179 -180 181 0
-151 -167 180 0
-180 151 0
-180 167 0
183 184 185 0
-183 -184 185 0
-159 -167 184 0
-184 159 0
-184 167 0
187 188 189 0
-187 -188 189 0
-129 -21 188 0
-188 129 0
-188 21 0
191 192 193 0
-191 -192 193 0
-125 -187 192 0
-192 125 0
-192 187 0
195 196 197 0
-195 -196 197 0
-143 -187 196 0
-196 143 0
-196 187 0
199 200 201 0
-199 -200 201 0
-151 -187 200 0
-200 151 0
-200 187 0
203 204 205 0
-203 -204 205 0
-159 -187 204 0
-204 159 0
-204 187 0
207 208 209 0
-207 -208 209 0
-17 -21 208 0
-208 17 0
-208 21 0
211 212 213 0
-211 -212 213 0
-125 -207 212 0
-212 125 0
-212 207 0
215 216 217 0
-215 -216 217 0
-143 -207 216 0
-216 143 0
-216 207 0
219 220 221 0
-219 -220 221 0
-151 -207 220 0
-220 151 0
-220 207 0
223 224 225 0
-223 -224 225 0
-159 -207 224 0
-224 159 0
-224 207 0
-449 -352 448 0
-449 352 -448 0
-352 289 351 0
-289 257 288 0
-257 241 256 0
-241 233 240 0
-233 229 232 0
-229 228 0
-229 139 0
-228 116 0
-228 227 0
-232 231 0
-232 147 0
-231 116 0
-231 230 0
-240 236 239 0
-236 235 0
-236 155 0
-235 116 0
-235 234 0
-239 238 0
-239 163 0
-238 116 0
-238 237 0
-256 248 255 0
-248 244 247 0
-244 243 0
-244 171 0
-243 116 0
-243 242 0
-247 -246 0
-247 175 0
116 245 246 0
-116 -245 246 0
-255 251 254 0
-251 250 0
-251 179 0
-250 116 0
-250 249 0
-254 253 0
-254 183 0
-253 116 0
-253 252 0
-288 272 287 0
-272 264 271 0
-264 260 263 0
-260 259 0
-260 191 0
-259 116 0
-259 258 0
-263 262 0
-263 195 0
-262 116 0
-262 261 0
-271 267 270 0
-267 266 0
-267 199 0
-266 116 0
-266 265 0
-270 269 0
-270 203 0
-269 116 0
-269 268 0
-287 279 286 0
-279 275 278 0
-275 274 0
-275 211 0
-274 116 0
-274 273 0
-278 277 0
-278 215 0
-277 116 0
-277 276 0
-286 282 285 0
-282 281 0
-282 219 0
-281 116 0
-281 280 0
-285 284 0
-285 223 0
-284 116 0
-284 283 0
-351 320 350 0
-320 304 319 0
-304 296 303 0
-296 292 295 0
-292 291 0
-292 139 0
-291 2 0
-291 290 0
-295 294 0
-295 147 0
-294 2 0
-294 293 0
-303 299 302 0
-299 298 0
-299 155 0
-298 2 0
-298 297 0
-302 301 0
-302 163 0
-301 2 0
-301 300 0
-319 311 318 0
-311 307 310 0
-307 306 0
-307 171 0
-306 2 0
-306 305 0
-310 309 0
-310 175 0
-309 2 0
-309 308 0
-318 314 317 0
-314 313 0
-314 179 0
-313 2 0
-313 312 0
-317 316 0
-317 183 0
-316 2 0
-316 315 0
-350 334 349 0
-334 326 333 0
-326 323 325 0
-323 322 0
-323 191 0
-322 2 0
-322 321 0
-325 324 0
-325 195 0
-333 329 332 0
-329 328 0
-329 199 0
-328 2 0
-328 327 0
-332 331 0
-332 203 0
-331 2 0
-331 330 0
-349 341 348 0
-341 337 340 0
-337 336 0
-337 211 0
-336 2 0
-336 335 0
-340 339 0
-340 215 0
-339 2 0
-339 338 0
-348 344 347 0
-344 343 0
-344 219 0
-343 2 0
-343 342 0
-347 346 0
-347 223 0
-346 2 0
-346 345 0
-448 399 447 0
-399 375 398 0
-375 363 374 0
-363 357 362 0
-357 354 356 0
-354 353 0
-354 28 0
-353 1 0
-353 227 0
-356 355 0
-356 36 0
-355 1 0
-355 230 0
-362 359 361 0
-359 358 0
-359 44 0
-358 1 0
-358 234 0
-361 360 0
-361 52 0
-360 1 0
-360 237 0
-374 368 373 0
-368 365 367 0
-365 364 0
-365 60 0
-364 1 0
-364 242 0
-367 366 0
-367 64 0
-366 1 0
-366 245 0
-373 370 372 0
-370 369 0
-370 68 0
-369 1 0
-369 249 0
-372 371 0
-372 72 0
-371 1 0
-371 252 0
-398 386 397 0
-386 380 385 0
-380 377 379 0
-377 376 0
-377 80 0
-376 1 0
-376 258 0
-379 378 0
-379 84 0
-378 1 0
-378 261 0
-385 382 384 0
-382 381 0
-382 88 0
-381 1 0
-381 265 0
-384 383 0
-384 92 0
-383 1 0
-383 268 0
-397 391 396 0
-391 388 390 0
-388 387 0
-388 100 0
-387 1 0
-387 273 0
-390 389 0
-390 104 0
-389 1 0
-389 276 0
-396 393 395 0
-393 392 0
-393 108 0
-392 1 0
-392 280 0
-395 394 0
-395 112 0
-394 1 0
-394 283 0
-447 422 446 0
-422 410 421 0
-410 404 409 0
-404 401 403 0
-401 400 0
-401 28 0
-400 2 0
-400 290 0
-403 402 0
-403 36 0
-402 2 0
-402 293 0
-409 406 408 0
-406 405 0
-406 44 0
-405 2 0
-405 297 0
-408 407 0
-408 52 0
-407 2 0
-407 300 0
-421 415 420 0
-415 412 414 0
-412 411 0
-412 60 0
-411 2 0
-411 305 0
-414 413 0
-414 64 0
-413 2 0
-413 308 0
-420 417 419 0
-417 416 0
-417 68 0
-416 2 0
-416 312 0
-419 418 0
-419 72 0
-418 2 0
-418 315 0
-446 434 445 0
-434 428 433 0
-428 424 427 0
-424 423 0
-424 80 0
-423 2 0
-423 321 0
-427 426 0
-427 84 0
-426 2 0
-426 425 0
-433 430 432 0
-430 429 0
-430 88 0
-429 2 0
-429 327 0
-432 431 0
-432 92 0
-431 2 0
-431 330 0
-445 439 444 0
-439 436 438 0
-436 435 0
-436 100 0
-435 2 0
-435 335 0
-438 437 0
-438 104 0
-437 2 0
-437 338 0
-444 441 443 0
-441 440 0
-441 108 0
-440 2 0
-440 342 0
-443 442 0
-443 112 0
-442 2 0
-442 345 0
-289 351 352 0
289 -351 352 0
-289 -351 352 0
-257 288 289 0
257 -288 289 0
-257 -288 289 0
-241 256 257 0
241 -256 257 0
-241 -256 257 0
-233 240 241 0
233 -240 241 0
-233 -240 241 0
-229 232 233 0
229 -232 233 0
-229 -232 233 0
-228 -139 229 0
-116 -227 228 0
-231 -147 232 0
-116 -230 231 0
-236 239 240 0
236 -239 240 0
-236 -239 240 0
-235 -155 236 0
-116 -234 235 0
-238 -163 239 0
-116 -237 238 0
-248 255 256 0
248 -255 256 0
-248 -255 256 0
-244 247 248 0
244 -247 248 0
-244 -247 248 0
-243 -171 244 0
-116 -242 243 0
246 -175 247 0
-246 -116 245 0
-246 116 -245 0
-251 254 255 0
251 -254 255 0
-251 -254 255 0
-250 -179 251 0
-116 -249 250 0
-253 -183 254 0
-116 -252 253 0
-272 287 288 0
272 -287 288 0
-272 -287 288 0
-264 271 272 0
264 -271 272 0
-264 -271 272 0
-260 263 264 0
260 -263 264 0
-260 -263 264 0
-259 -191 260 0
-116 -258 259 0
-262 -195 263 0
-116 -261 262 0
-267 270 271 0
267 -270 271 0
-267 -270 271 0
-266 -199 267 0
-116 -265 266 0
-269 -203 270 0
-116 -268 269 0
-279 286 287 0
279 -286 287 0
-279 -286 287 0
-275 278 279 0
275 -278 279 0
-275 -278 279 0
-274 -211 275 0
-116 -273 274 0
-277 -215 278 0
-116 -276 277 0
-282 285 286 0
282 -285 286 0
-282 -285 286 0
-281 -219 282 0
-116 -280 281 0
-284 -223 285 0
-116 -283 284 0
-320 350 351 0
320 -350 351 0
-320 -350 351 0
-304 319 320 0
304 -319 320 0
-304 -319 320 0
-296 303 304 0
296 -303 304 0
-296 -303 304 0
-292 295 296 0
292 -295 296 0
-292 -295 296 0
-291 -139 292 0
-2 -290 291 0
-294 -147 295 0
-2 -293 294 0
-299 302 303 0
299 -302 303 0
-299 -302 303 0
-298 -155 299 0
-2 -297 298 0
-301 -163 302 0
-2 -300 301 0
-311 318 319 0
311 -318 319 0
-311 -318 319 0
-307 310 311 0
307 -310 311 0
-307 -310 311 0
-306 -171 307 0
-2 -305 306 0
-309 -175 310 0
-2 -308 309 0
-314 317 318 0
314 -317 318 0
-314 -317 318 0
-313 -179 314 0
-2 -312 313 0
-316 -183 317 0
-2 -315 316 0
-334 349 350 0
334 -349 350 0
-334 -349 350 0
-326 333 334 0
326 -333 334 0
-326 -333 334 0
-323 325 326 0
323 -325 326 0
-323 -325 326 0
-322 -191 323 0
-2 -321 322 0
-324 -195 325 0
-329 332 333 0
329 -332 333 0
-329 -332 333 0
-328 -199 329 0
-2 -327 328 0
-331 -203 332 0
-2 -330 331 0
-341 348 349 0
341 -348 349 0
-341 -348 349 0
-337 340 341 0
337 -340 341 0
-337 -340 341 0
-336 -211 337 0
-2 -335 336 0
-339 -215 340 0
-2 -338 339 0
-344 347 348 0
344 -347 348 0
-344 -347 348 0
-343 -219 344 0
-2 -342 343 0
-346 -223 347 0
-2 -345 346 0
-399 447 448 0
399 -447 448 0
-399 -447 448 0
-375 398 399 0
375 -398 399 0
-375 -398 399 0
-363 374 375 0
363 -374 375 0
-363 -374 375 0
-357 362 363 0
357 -362 363 0
-357 -362 363 0
-354 356 357 0
354 -356 357 0
-354 -356 357 0
-353 -28 354 0
-1 -227 353 0
-355 -36 356 0
-1 -230 355 0
-359 361 362 0
359 -361 362 0
-359 -361 362 0
-358 -44 359 0
-1 -234 358 0
-360 -52 361 0
-1 -237 360 0
-368 373 374 0
368 -373 374 0
-368 -373 374 0
-365 367 368 0
365 -367 368 0
-365 -367 368 0
-364 -60 365 0
-1 -242 364 0
-366 -64 367 0
-1 -245 366 0
-370 372 373 0
370 -372 373 0
-370 -372 373 0
-369 -68 370 0
-1 -249 369 0
-371 -72 372 0
-1 -252 371 0
-386 397 398 0
386 -397 398 0
-386 -397 398 0
-380 385 386 0
380 -385 386 0
-380 -385 386 0
-377 379 380 0
377 -379 380 0
-377 -379 380 0
-376 -80 377 0
-1 -258 376 0
-378 -84 379 0
-1 -261 378 0
-382 384 385 0
382 -384 385 0
-382 -384 385 0
-381 -88 382 0
-1 -265 381 0
-383 -92 384 0
-1 -268 383 0
-391 396 397 0
391 -396 397 0
-391 -396 397 0
-388 390 391 0
388 -390 391 0
-388 -390 391 0
-387 -100 388 0
-1 -273 387 0
-389 -104 390 0
-1 -276 389 0
-393 395 396 0
393 -395 396 0
-393 -395 396 0
-392 -108 393 0
-1 -280 392 0
-394 -112 395 0
-1 -283 394 0
-422 446 447 0
422 -446 447 0
-422 -446 447 0
-410 421 422 0
410 -421 422 0
-410 -421 422 0
-404 409 410 0
404 -409 410 0
-404 -409 410 0
-401 403 404 0
401 -403 404 0
-401 -403 404 0
-400 -28 401 0
-2 -290 400 0
-402 -36 403 0
-2 -293 402 0
-406 408 409 0
406 -408 409 0
-406 -408 409 0
-405 -44 406 0
-2 -297 405 0
-407 -52 408 0
-2 -300 407 0
-415 420 421 0
415 -420 421 0
-415 -420 421 0
-412 414 415 0
412 -414 415 0
-412 -414 415 0
-411 -60 412 0
-2 -305 411 0
-413 -64 414 0
-2 -308 413 0
-417 419 420 0
417 -419 420 0
-417 -419 420 0
-416 -68 417 0
-2 -312 416 0
-418 -72 419 0
-2 -315 418 0
-434 445 446 0
434 -445 446 0
-434 -445 446 0
-428 433 434 0
428 -433 434 0
-428 -433 434 0
-424 427 428 0
424 -427 428 0
-424 -427 428 0
-423 -80 424 0
-2 -321 423 0
-426 -84 427 0
-2 -425 426 0
-430 432 433 0
430 -432 433 0
-430 -432 433 0
-429 -88 430 0
-2 -327 429 0
-431 -92 432 0
-2 -330 431 0
-439 444 445 0
439 -444 445 0
-439 -444 445 0
-436 438 439 0
436 -438 439 0
-436 -438 439 0
-435 -100 436 0
-2 -335 435 0
-437 -104 438 0
-2 -338 437 0
-441 443 444 0
441 -443 444 0
-441 -443 444 0
-440 -108 441 0
-2 -342 440 0
-442 -112 443 0
-2 -345 442 0
1403 0
4 -1404 0
8 -1404 0
-4 -8 1404 0
20 -1405 0
16 -1405 0
-20 -16 1405 0
24 -1406 0
12 -1406 0
-24 -12 1406 0
8 -1407 0
5 -1407 0
-8 -5 1407 0
32 -1408 0
24 -1408 0
-32 -24 1408 0
4 -1409 0
9 -1409 0
-4 -9 1409 0
40 -1410 0
24 -1410 0
-40 -24 1410 0
5 -1411 0
9 -1411 0
-5 -9 1411 0
48 -1412 0
24 -1412 0
-48 -24 1412 0
20 -1413 0
17 -1413 0
-20 -17 1413 0
56 -1414 0
12 -1414 0
-56 -12 1414 0
56 -1415 0
32 -1415 0
-56 -32 1415 0
56 -1416 0
40 -1416 0
-56 -40 1416 0
56 -1417 0
48 -1417 0
-56 -48 1417 0
16 -1418 0
21 -1418 0
-16 -21 1418 0
12 -1419 0
76 -1419 0
-12 -76 1419 0
32 -1420 0
76 -1420 0
-32 -76 1420 0
40 -1421 0
76 -1421 0
-40 -76 1421 0
48 -1422 0
76 -1422 0
-48 -76 1422 0
21 -1423 0
17 -1423 0
-21 -17 1423 0
12 -1424 0
96 -1424 0
-12 -96 1424 0
32 -1425 0
96 -1425 0
-32 -96 1425 0
40 -1426 0
96 -1426 0
-40 -96 1426 0
48 -1427 0
96 -1427 0
-48 -96 1427 0
122 -1428 0
119 -1428 0
-122 -119 1428 0
129 -1429 0
132 -1429 0
-129 -132 1429 0
135 -1430 0
125 -1430 0
-135 -125 1430 0
5 -1431 0
122 -1431 0
-5 -122 1431 0
135 -1432 0
143 -1432 0
-135 -143 1432 0
9 -1433 0
119 -1433 0
-9 -119 1433 0
151 -1434 0
135 -1434 0
-151 -135 1434 0
159 -1435 0
135 -1435 0
-159 -135 1435 0
17 -1436 0
132 -1436 0
-17 -132 1436 0
167 -1437 0
125 -1437 0
-167 -125 1437 0
167 -1438 0
143 -1438 0
-167 -143 1438 0
167 -1439 0
151 -1439 0
-167 -151 1439 0
167 -1440 0
159 -1440 0
-167 -159 1440 0
21 -1441 0
129 -1441 0
-21 -129 1441 0
187 -1442 0
125 -1442 0
-187 -125 1442 0
187 -1443 0
143 -1443 0
-187 -143 1443 0
151 -1444 0
187 -1444 0
-151 -187 1444 0
159 -1445 0
187 -1445 0
-159 -187 1445 0
207 -1446 0
125 -1446 0
-207 -125 1446 0
207 -1447 0
143 -1447 0
-207 -143 1447 0
151 -1448 0
207 -1448 0
-151 -207 1448 0
159 -1449 0
207 -1449 0
-159 -207 1449 0
227 -1450 0
116 -1450 0
-227 -116 1450 0
139 -1451 0
228 -1451 0
-139 -228 1451 0
230 -1452 0
116 -1452 0
-230 -116 1452 0
147 -1453 0
231 -1453 0
-147 -231 1453 0
-229 -1454 0
-232 -1454 0
229 232 1454 0
234 -1455 0
116 -1455 0
-234 -116 1455 0
155 -1456 0
235 -1456 0
-155 -235 1456 0
237 -1457 0
116 -1457 0
-237 -116 1457 0
163 -1458 0
238 -1458 0
-163 -238 1458 0
-236 -1459 0
-239 -1459 0
236 239 1459 0
-233 -1460 0
-240 -1460 0
233 240 1460 0
242 -1461 0
116 -1461 0
-242 -116 1461 0
171 -1462 0
243 -1462 0
-171 -243 1462 0
245 -1463 0
-116 -1463 0
-245 116 1463 0
-245 -1464 0
116 -1464 0
245 -116 1464 0
-1463 -1465 0
-1464 -1465 0
1463 1464 1465 0
175 -1466 0
-246 -1466 0
-175 246 1466 0
-244 -1467 0
-247 -1467 0
244 247 1467 0
249 -1468 0
116 -1468 0
-249 -116 1468 0
179 -1469 0
250 -1469 0
-179 -250 1469 0
252 -1470 0
116 -1470 0
-252 -116 1470 0
183 -1471 0
253 -1471 0
-183 -253 1471 0
-251 -1472 0
-254 -1472 0
251 254 1472 0
-248 -1473 0
-255 -1473 0
248 255 1473 0
-241 -1474 0
-256 -1474 0
241 256 1474 0
258 -1475 0
116 -1475 0
-258 -116 1475 0
191 -1476 0
259 -1476 0
-191 -259 1476 0
261 -1477 0
116 -1477 0
-261 -116 1477 0
195 -1478 0
262 -1478 0
-195 -262 1478 0
-260 -1479 0
-263 -1479 0
260 263 1479 0
265 -1480 0
116 -1480 0
-265 -116 1480 0
199 -1481 0
266 -1481 0
-199 -266 1481 0
268 -1482 0
116 -1482 0
-268 -116 1482 0
203 -1483 0
269 -1483 0
-203 -269 1483 0
-267 -1484 0
-270 -1484 0
267 270 1484 0
-264 -1485 0
1484 -1485 0
264 -1484 1485 0
273 -1486 0
116 -1486 0
-273 -116 1486 0
211 -1487 0
274 -1487 0
-211 -274 1487 0
276 -1488 0
116 -1488 0
-276 -116 1488 0
215 -1489 0
277 -1489 0
-215 -277 1489 0
-275 -1490 0
-278 -1490 0
275 278 1490 0
280 -1491 0
116 -1491 0
-280 -116 1491 0
219 -1492 0
281 -1492 0
-219 -281 1492 0
283 -1493 0
116 -1493 0
-283 -116 1493 0
223 -1494 0
284 -1494 0
-223 -284 1494 0
-282 -1495 0
-285 -1495 0
282 285 1495 0
-279 -1496 0
-286 -1496 0
279 286 1496 0
-272 -1497 0
-287 -1497 0
272 287 1497 0
-257 -1498 0
1497 -1498 0
257 -1497 1498 0
290 -1499 0
2 -1499 0
-290 -2 1499 0
139 -1500 0
291 -1500 0
-139 -291 1500 0
293 -1501 0
2 -1501 0
-293 -2 1501 0
147 -1502 0
294 -1502 0
-147 -294 1502 0
-292 -1503 0
-295 -1503 0
292 295 1503 0
297 -1504 0
2 -1504 0
-297 -2 1504 0
155 -1505 0
298 -1505 0
-155 -298 1505 0
300 -1506 0
2 -1506 0
-300 -2 1506 0
163 -1507 0
301 -1507 0
-163 -301 1507 0
-299 -1508 0
-302 -1508 0
299 302 1508 0
-296 -1509 0
1508 -1509 0
296 -1508 1509 0
305 -1510 0
2 -1510 0
-305 -2 1510 0
171 -1511 0
306 -1511 0
-171 -306 1511 0
308 -1512 0
2 -1512 0
-308 -2 1512 0
175 -1513 0
309 -1513 0
-175 -309 1513 0
-307 -1514 0
-310 -1514 0
307 310 1514 0
312 -1515 0
2 -1515 0
-312 -2 1515 0
179 -1516 0
313 -1516 0
-179 -313 1516 0
315 -1517 0
2 -1517 0
-315 -2 1517 0
183 -1518 0
316 -1518 0
-183 -316 1518 0
-314 -1519 0
-317 -1519 0
314 317 1519 0
-311 -1520 0
-318 -1520 0
311 318 1520 0
-304 -1521 0
1520 -1521 0
304 -1520 1521 0
321 -1522 0
2 -1522 0
-321 -2 1522 0
191 -1523 0
322 -1523 0
-191 -322 1523 0
-323 -1524 0
-325 -1524 0
323 325 1524 0
327 -1525 0
2 -1525 0
-327 -2 1525 0
199 -1526 0
328 -1526 0
-199 -328 1526 0
330 -1527 0
2 -1527 0
-330 -2 1527 0
203 -1528 0
331 -1528 0
-203 -331 1528 0
-329 -1529 0
-332 -1529 0
329 332 1529 0
-326 -1530 0
-333 -1530 0
326 333 1530 0
335 -1531 0
2 -1531 0
-335 -2 1531 0
211 -1532 0
336 -1532 0
-211 -336 1532 0
338 -1533 0
2 -1533 0
-338 -2 1533 0
215 -1534 0
339 -1534 0
-215 -339 1534 0
-337 -1535 0
-340 -1535 0
337 340 1535 0
342 -1536 0
2 -1536 0
-342 -2 1536 0
219 -1537 0
343 -1537 0
-219 -343 1537 0
345 -1538 0
2 -1538 0
-345 -2 1538 0
223 -1539 0
346 -1539 0
-223 -346 1539 0
-344 -1540 0
-347 -1540 0
344 347 1540 0
-341 -1541 0
-348 -1541 0
341 348 1541 0
-334 -1542 0
1541 -1542 0
334 -1541 1542 0
-320 -1543 0
-350 -1543 0
320 350 1543 0
-289 -1544 0
1543 -1544 0
289 -1543 1544 0
1 -1545 0
227 -1545 0
-1 -227 1545 0
28 -1546 0
353 -1546 0
-28 -353 1546 0
1 -1547 0
230 -1547 0
-1 -230 1547 0
36 -1548 0
355 -1548 0
-36 -355 1548 0
-354 -1549 0
-356 -1549 0
354 356 1549 0
1 -1550 0
234 -1550 0
-1 -234 1550 0
44 -1551 0
358 -1551 0
-44 -358 1551 0
1 -1552 0
237 -1552 0
-1 -237 1552 0
52 -1553 0
360 -1553 0
-52 -360 1553 0
-359 -1554 0
-361 -1554 0
359 361 1554 0
-357 -1555 0
-362 -1555 0
357 362 1555 0
1 -1556 0
242 -1556 0
-1 -242 1556 0
60 -1557 0
364 -1557 0
-60 -364 1557 0
1 -1558 0
245 -1558 0
-1 -245 1558 0
64 -1559 0
366 -1559 0
-64 -366 1559 0
-365 -1560 0
-367 -1560 0
365 367 1560 0
1 -1561 0
249 -1561 0
-1 -249 1561 0
68 -1562 0
369 -1562 0
-68 -369 1562 0
1 -1563 0
252 -1563 0
-1 -252 1563 0
72 -1564 0
371 -1564 0
-72 -371 1564 0
-370 -1565 0
-372 -1565 0
370 372 1565 0
-368 -1566 0
-373 -1566 0
368 373 1566 0
-363 -1567 0
1566 -1567 0
363 -1566 1567 0
1 -1568 0
258 -1568 0
-1 -258 1568 0
80 -1569 0
376 -1569 0
-80 -376 1569 0
261 -1570 0
1 -1570 0
-261 -1 1570 0
84 -1571 0
378 -1571 0
-84 -378 1571 0
-377 -1572 0
-379 -1572 0
377 379 1572 0
265 -1573 0
1 -1573 0
-265 -1 1573 0
88 -1574 0
381 -1574 0
-88 -381 1574 0
268 -1575 0
1 -1575 0
-268 -1 1575 0
92 -1576 0
383 -1576 0
-92 -383 1576 0
-382 -1577 0
-384 -1577 0
382 384 1577 0
-380 -1578 0
-385 -1578 0
380 385 1578 0
273 -1579 0
1 -1579 0
-273 -1 1579 0
100 -1580 0
387 -1580 0
-100 -387 1580 0
276 -1581 0
1 -1581 0
-276 -1 1581 0
104 -1582 0
389 -1582 0
-104 -389 1582 0
-388 -1583 0
-390 -1583 0
388 390 1583 0
280 -1584 0
1 -1584 0
-280 -1 1584 0
108 -1585 0
392 -1585 0
-108 -392 1585 0
283 -1586 0
1 -1586 0
-283 -1 1586 0
112 -1587 0
394 -1587 0
-112 -394 1587 0
-393 -1588 0
-395 -1588 0
393 395 1588 0
-391 -1589 0
1588 -1589 0
391 -1588 1589 0
-386 -1590 0
-391 -1590 0
386 391 1590 0
-396 -1591 0
1590 -1591 0
396 -1590 1591 0
-375 -1592 0
-386 -1592 0
375 386 1592 0
-397 -1593 0
1592 -1593 0
397 -1592 1593 0
28 -1594 0
400 -1594 0
-28 -400 1594 0
36 -1595 0
402 -1595 0
-36 -402 1595 0
-401 -1596 0
-403 -1596 0
401 403 1596 0
44 -1597 0
405 -1597 0
-44 -405 1597 0
52 -1598 0
407 -1598 0
-52 -407 1598 0
-406 -1599 0
-408 -1599 0
406 408 1599 0
-404 -1600 0
-409 -1600 0
404 409 1600 0
60 -1601 0
411 -1601 0
-60 -411 1601 0
64 -1602 0
413 -1602 0
-64 -413 1602 0
-412 -1603 0
-414 -1603 0
412 414 1603 0
68 -1604 0
416 -1604 0
-68 -416 1604 0
72 -1605 0
418 -1605 0
-72 -418 1605 0
-417 -1606 0
-419 -1606 0
417 419 1606 0
-415 -1607 0
-420 -1607 0
415 420 1607 0
-410 -1608 0
1607 -1608 0
410 -1607 1608 0
80 -1609 0
423 -1609 0
-80 -423 1609 0
425 -1610 0
2 -1610 0
-425 -2 1610 0
84 -1611 0
426 -1611 0
-84 -426 1611 0
-424 -1612 0
-427 -1612 0
424 427 1612 0
88 -1613 0
429 -1613 0
-88 -429 1613 0
92 -1614 0
431 -1614 0
-92 -431 1614 0
-430 -1615 0
-432 -1615 0
430 432 1615 0
-428 -1616 0
-433 -1616 0
428 433 1616 0
100 -1617 0
435 -1617 0
-100 -435 1617 0
104 -1618 0
437 -1618 0
-104 -437 1618 0
-436 -1619 0
-438 -1619 0
436 438 1619 0
108 -1620 0
440 -1620 0
-108 -440 1620 0
112 -1621 0
442 -1621 0
-112 -442 1621 0
-441 -1622 0
-443 -1622 0
441 443 1622 0
-439 -1623 0
-444 -1623 0
439 444 1623 0
-434 -1624 0
-445 -1624 0
434 445 1624 0
-422 -1625 0
-446 -1625 0
422 446 1625 0
-399 -1626 0
-447 -1626 0
399 447 1626 0
